(set-info :source |printed by MathSAT|)
(declare-fun |!{$(in_main#0)<N>}| () Int)
(declare-fun |!{$(in_main#0)<N>}.next| () Int)
(declare-fun |!{$(in_main#0)<j>}| () Int)
(declare-fun |!{$(in_main#0)<j>}.next| () Int)
(declare-fun |!{$(in_main#0)<k>}| () Int)
(declare-fun |!{$(in_main#0)<k>}.next| () Int)
(declare-fun |!{$(in_main#0)<k#1>}| () Int)
(declare-fun |!{$(in_main#0)<k#1>}.next| () Int)
(declare-fun |!{$(in_main#0)<k#2>}| () Int)
(declare-fun |!{$(in_main#0)<k#2>}.next| () Int)
(declare-fun |!{$(in_main#0)<l>}| () Int)
(declare-fun |!{$(in_main#0)<l>}.next| () Int)
(declare-fun |!{$(in_main#0)<x>}| () Int)
(declare-fun |!{$(in_main#0)<x>}.next| () Int)
(declare-fun |!{$(in_main#0)<array.1>}| () (Array Int Int))
(declare-fun |!{$(in_main#0)<array.1>}.next| () (Array Int Int))
(declare-fun |!{$(in_main#0)<$(in___VERIFIER_nondet_int#0)<h#<__VERIFIER_nondet_int.return>>>}| () Int)
(declare-fun |!{$(in_main#0)<$(in___VERIFIER_nondet_int#2)<h#<__VERIFIER_nondet_int.return>>>}| () Int)
(declare-fun !pc () Int)
(declare-fun !pc.next () Int)
(declare-fun |%{$(in_main#0)<j>}#1| () Int)
(declare-fun |%{$(in_main#0)<k#1>}#1| () Int)
(declare-fun |%{$(in_main#0)<k#2>}#1| () Int)
(declare-fun |%{$(in_main#0)<l>}#1| () Int)
(declare-fun |%{$(in_main#0)<x>}#1| () Int)
(declare-fun |%{$(in_main#0)<array.1>}#1| () (Array Int Int))
(define-fun .def_39 () Int (! !pc :next !pc.next))
(define-fun .def_42 () Bool (! (= .def_39 2) :init true))
(define-fun .def_299 () Bool (= .def_39 41))
(define-fun .def_272 () Bool (= !pc.next 61))
(define-fun .def_302 () Bool (and .def_272 .def_299))
(define-fun .def_292 () Bool (= |!{$(in_main#0)<k#1>}.next| 0))
(define-fun .def_12 () Int (! |!{$(in_main#0)<k>}| :next |!{$(in_main#0)<k>}.next|))
(define-fun .def_92 () Bool (= .def_12 |!{$(in_main#0)<k>}.next|))
(define-fun .def_10 () Int (! |!{$(in_main#0)<j>}| :next |!{$(in_main#0)<j>}.next|))
(define-fun .def_90 () Bool (= .def_10 |!{$(in_main#0)<j>}.next|))
(define-fun .def_8 () Int (! |!{$(in_main#0)<N>}| :next |!{$(in_main#0)<N>}.next|))
(define-fun .def_89 () Bool (= .def_8 |!{$(in_main#0)<N>}.next|))
(define-fun .def_91 () Bool (and .def_89 .def_90))
(define-fun .def_93 () Bool (and .def_91 .def_92))
(define-fun .def_293 () Bool (and .def_93 .def_292))
(define-fun .def_16 () Int (! |!{$(in_main#0)<k#2>}| :next |!{$(in_main#0)<k#2>}.next|))
(define-fun .def_96 () Bool (= .def_16 |!{$(in_main#0)<k#2>}.next|))
(define-fun .def_294 () Bool (and .def_96 .def_293))
(define-fun .def_18 () Int (! |!{$(in_main#0)<l>}| :next |!{$(in_main#0)<l>}.next|))
(define-fun .def_112 () Bool (= .def_18 |!{$(in_main#0)<l>}.next|))
(define-fun .def_295 () Bool (and .def_112 .def_294))
(define-fun .def_20 () Int (! |!{$(in_main#0)<x>}| :next |!{$(in_main#0)<x>}.next|))
(define-fun .def_102 () Bool (= .def_20 |!{$(in_main#0)<x>}.next|))
(define-fun .def_296 () Bool (and .def_102 .def_295))
(define-fun .def_22 () (Array Int Int) (! |!{$(in_main#0)<array.1>}| :next |!{$(in_main#0)<array.1>}.next|))
(define-fun .def_104 () Bool (= .def_22 |!{$(in_main#0)<array.1>}.next|))
(define-fun .def_297 () Bool (and .def_104 .def_296))
(define-fun .def_277 () Bool (<= .def_8 .def_12))
(define-fun .def_298 () Bool (and .def_277 .def_297))
(define-fun .def_303 () Bool (and .def_298 .def_302))
(define-fun .def_79 () Bool (= !pc.next 41))
(define-fun .def_300 () Bool (and .def_79 .def_299))
(define-fun .def_279 () (Array Int Int) (store .def_22 .def_12 |!{$(in_main#0)<$(in___VERIFIER_nondet_int#2)<h#<__VERIFIER_nondet_int.return>>>}|))
(define-fun .def_289 () Bool (= |!{$(in_main#0)<array.1>}.next| .def_279))
(define-fun .def_281 () Int (* (- 1) |!{$(in_main#0)<k>}.next|))
(define-fun .def_282 () Int (+ .def_12 .def_281))
(define-fun .def_283 () Bool (= .def_282 (- 1)))
(define-fun .def_284 () Bool (and .def_91 .def_283))
(define-fun .def_14 () Int (! |!{$(in_main#0)<k#1>}| :next |!{$(in_main#0)<k#1>}.next|))
(define-fun .def_94 () Bool (= .def_14 |!{$(in_main#0)<k#1>}.next|))
(define-fun .def_285 () Bool (and .def_94 .def_284))
(define-fun .def_286 () Bool (and .def_96 .def_285))
(define-fun .def_287 () Bool (and .def_112 .def_286))
(define-fun .def_288 () Bool (and .def_102 .def_287))
(define-fun .def_290 () Bool (and .def_288 .def_289))
(define-fun .def_278 () Bool (not .def_277))
(define-fun .def_291 () Bool (and .def_278 .def_290))
(define-fun .def_301 () Bool (and .def_291 .def_300))
(define-fun .def_304 () Bool (or .def_301 .def_303))
(define-fun .def_269 () Bool (= .def_39 69))
(define-fun .def_273 () Bool (and .def_269 .def_272))
(define-fun .def_260 () Int (* (- 1) |!{$(in_main#0)<k#1>}.next|))
(define-fun .def_261 () Int (+ .def_14 .def_260))
(define-fun .def_262 () Bool (= .def_261 (- 1)))
(define-fun .def_263 () Bool (and .def_93 .def_262))
(define-fun .def_264 () Bool (and .def_96 .def_263))
(define-fun .def_265 () Bool (and .def_112 .def_264))
(define-fun .def_266 () Bool (and .def_102 .def_265))
(define-fun .def_267 () Bool (and .def_104 .def_266))
(define-fun .def_248 () Int (* (- 1) .def_18))
(define-fun .def_249 () Int (+ .def_8 .def_248))
(define-fun .def_250 () Bool (<= .def_249 1))
(define-fun .def_268 () Bool (and .def_250 .def_267))
(define-fun .def_274 () Bool (and .def_268 .def_273))
(define-fun .def_241 () Bool (= !pc.next 69))
(define-fun .def_270 () Bool (and .def_241 .def_269))
(define-fun .def_130 () Int (select .def_22 .def_18))
(define-fun .def_252 () Int (select .def_22 .def_14))
(define-fun .def_253 () Bool (<= .def_252 .def_130))
(define-fun .def_254 () Int (ite .def_253 1 0))
(define-fun .def_255 () Bool (= .def_254 0))
(define-fun .def_256 () Bool (not .def_255))
(define-fun .def_98 () Int (* (- 1) |!{$(in_main#0)<l>}.next|))
(define-fun .def_147 () Int (+ .def_18 .def_98))
(define-fun .def_148 () Bool (= .def_147 (- 1)))
(define-fun .def_95 () Bool (and .def_93 .def_94))
(define-fun .def_97 () Bool (and .def_95 .def_96))
(define-fun .def_149 () Bool (and .def_97 .def_148))
(define-fun .def_150 () Bool (and .def_102 .def_149))
(define-fun .def_151 () Bool (and .def_104 .def_150))
(define-fun .def_258 () Bool (and .def_151 .def_256))
(define-fun .def_251 () Bool (not .def_250))
(define-fun .def_259 () Bool (and .def_251 .def_258))
(define-fun .def_271 () Bool (and .def_259 .def_270))
(define-fun .def_275 () Bool (or .def_271 .def_274))
(define-fun .def_239 () Bool (= .def_39 61))
(define-fun .def_206 () Bool (= !pc.next 101))
(define-fun .def_244 () Bool (and .def_206 .def_239))
(define-fun .def_83 () Int (+ .def_8 (- 1)))
(define-fun .def_220 () Int (select .def_22 .def_83))
(define-fun .def_234 () Bool (= |!{$(in_main#0)<x>}.next| .def_220))
(define-fun .def_186 () Int (* (- 1) |!{$(in_main#0)<j>}.next|))
(define-fun .def_227 () Int (+ .def_8 .def_186))
(define-fun .def_228 () Bool (= .def_227 2))
(define-fun .def_229 () Bool (and .def_89 .def_228))
(define-fun .def_230 () Bool (and .def_92 .def_229))
(define-fun .def_231 () Bool (and .def_94 .def_230))
(define-fun .def_232 () Bool (and .def_96 .def_231))
(define-fun .def_233 () Bool (and .def_112 .def_232))
(define-fun .def_235 () Bool (and .def_233 .def_234))
(define-fun .def_236 () Bool (and .def_104 .def_235))
(define-fun .def_215 () Int (* (- 1) .def_14))
(define-fun .def_216 () Int (+ .def_8 .def_215))
(define-fun .def_217 () Bool (<= .def_216 2))
(define-fun .def_237 () Bool (and .def_217 .def_236))
(define-fun .def_245 () Bool (and .def_237 .def_244))
(define-fun .def_242 () Bool (and .def_239 .def_241))
(define-fun .def_221 () Int (+ .def_14 .def_98))
(define-fun .def_222 () Bool (= .def_221 (- 1)))
(define-fun .def_223 () Bool (and .def_97 .def_222))
(define-fun .def_224 () Bool (and .def_102 .def_223))
(define-fun .def_225 () Bool (and .def_104 .def_224))
(define-fun .def_218 () Bool (not .def_217))
(define-fun .def_226 () Bool (and .def_218 .def_225))
(define-fun .def_243 () Bool (and .def_226 .def_242))
(define-fun .def_246 () Bool (or .def_243 .def_245))
(define-fun .def_205 () Bool (= .def_39 101))
(define-fun .def_170 () Bool (= !pc.next 113))
(define-fun .def_209 () Bool (and .def_170 .def_205))
(define-fun .def_198 () Bool (= |!{$(in_main#0)<k#2>}.next| 0))
(define-fun .def_199 () Bool (and .def_95 .def_198))
(define-fun .def_200 () Bool (and .def_112 .def_199))
(define-fun .def_201 () Bool (and .def_102 .def_200))
(define-fun .def_202 () Bool (and .def_104 .def_201))
(define-fun .def_178 () Int (select .def_22 .def_10))
(define-fun .def_179 () Bool (<= .def_178 .def_20))
(define-fun .def_180 () Bool (not .def_179))
(define-fun .def_177 () Bool (<= 0 .def_10))
(define-fun .def_181 () Bool (and .def_177 .def_180))
(define-fun .def_185 () Bool (not .def_181))
(define-fun .def_203 () Bool (and .def_185 .def_202))
(define-fun .def_210 () Bool (and .def_203 .def_209))
(define-fun .def_207 () Bool (and .def_205 .def_206))
(define-fun .def_182 () Int (+ .def_10 1))
(define-fun .def_183 () (Array Int Int) (store .def_22 .def_182 .def_178))
(define-fun .def_195 () Bool (= |!{$(in_main#0)<array.1>}.next| .def_183))
(define-fun .def_187 () Int (+ .def_10 .def_186))
(define-fun .def_188 () Bool (= .def_187 1))
(define-fun .def_189 () Bool (and .def_89 .def_188))
(define-fun .def_190 () Bool (and .def_92 .def_189))
(define-fun .def_191 () Bool (and .def_94 .def_190))
(define-fun .def_192 () Bool (and .def_96 .def_191))
(define-fun .def_193 () Bool (and .def_112 .def_192))
(define-fun .def_194 () Bool (and .def_102 .def_193))
(define-fun .def_196 () Bool (and .def_194 .def_195))
(define-fun .def_197 () Bool (and .def_181 .def_196))
(define-fun .def_208 () Bool (and .def_197 .def_207))
(define-fun .def_211 () Bool (or .def_208 .def_210))
(define-fun .def_162 () Bool (= .def_39 121))
(define-fun .def_171 () Bool (and .def_162 .def_170))
(define-fun .def_154 () Int (* (- 1) |!{$(in_main#0)<k#2>}.next|))
(define-fun .def_155 () Int (+ .def_16 .def_154))
(define-fun .def_156 () Bool (= .def_155 (- 1)))
(define-fun .def_157 () Bool (and .def_95 .def_156))
(define-fun .def_158 () Bool (and .def_112 .def_157))
(define-fun .def_159 () Bool (and .def_102 .def_158))
(define-fun .def_160 () Bool (and .def_104 .def_159))
(define-fun .def_127 () Bool (<= .def_8 .def_18))
(define-fun .def_161 () Bool (and .def_127 .def_160))
(define-fun .def_172 () Bool (and .def_161 .def_171))
(define-fun .def_119 () Bool (= !pc.next 121))
(define-fun .def_167 () Bool (and .def_119 .def_162))
(define-fun .def_129 () Int (select .def_22 .def_16))
(define-fun .def_131 () Bool (<= .def_129 .def_130))
(define-fun .def_132 () Int (ite .def_131 1 0))
(define-fun .def_133 () Bool (= .def_132 0))
(define-fun .def_134 () Bool (not .def_133))
(define-fun .def_152 () Bool (and .def_134 .def_151))
(define-fun .def_128 () Bool (not .def_127))
(define-fun .def_153 () Bool (and .def_128 .def_152))
(define-fun .def_168 () Bool (and .def_153 .def_167))
(define-fun .def_164 () Bool (= !pc.next 141))
(define-fun .def_165 () Bool (and .def_162 .def_164))
(define-fun .def_138 () Bool (and .def_89 .def_133))
(define-fun .def_139 () Bool (and .def_90 .def_138))
(define-fun .def_140 () Bool (and .def_92 .def_139))
(define-fun .def_141 () Bool (and .def_94 .def_140))
(define-fun .def_142 () Bool (and .def_96 .def_141))
(define-fun .def_143 () Bool (and .def_112 .def_142))
(define-fun .def_144 () Bool (and .def_102 .def_143))
(define-fun .def_145 () Bool (and .def_104 .def_144))
(define-fun .def_146 () Bool (and .def_128 .def_145))
(define-fun .def_166 () Bool (and .def_146 .def_165))
(define-fun .def_169 () Bool (or .def_166 .def_168))
(define-fun .def_173 () Bool (or .def_169 .def_172))
(define-fun .def_122 () Bool (= !pc.next 0))
(define-fun .def_117 () Bool (= .def_39 113))
(define-fun .def_123 () Bool (and .def_117 .def_122))
(define-fun .def_84 () Int (* (- 1) .def_16))
(define-fun .def_85 () Int (+ .def_8 .def_84))
(define-fun .def_86 () Bool (<= .def_85 1))
(define-fun .def_107 () Bool (and .def_86 .def_89))
(define-fun .def_108 () Bool (and .def_90 .def_107))
(define-fun .def_109 () Bool (and .def_92 .def_108))
(define-fun .def_110 () Bool (and .def_94 .def_109))
(define-fun .def_111 () Bool (and .def_96 .def_110))
(define-fun .def_113 () Bool (and .def_111 .def_112))
(define-fun .def_114 () Bool (and .def_102 .def_113))
(define-fun .def_115 () Bool (and .def_104 .def_114))
(define-fun .def_124 () Bool (and .def_115 .def_123))
(define-fun .def_120 () Bool (and .def_117 .def_119))
(define-fun .def_99 () Int (+ .def_16 .def_98))
(define-fun .def_100 () Bool (= .def_99 (- 1)))
(define-fun .def_101 () Bool (and .def_97 .def_100))
(define-fun .def_103 () Bool (and .def_101 .def_102))
(define-fun .def_105 () Bool (and .def_103 .def_104))
(define-fun .def_87 () Bool (not .def_86))
(define-fun .def_106 () Bool (and .def_87 .def_105))
(define-fun .def_121 () Bool (and .def_106 .def_120))
(define-fun .def_125 () Bool (or .def_121 .def_124))
(define-fun .def_80 () Bool (and .def_42 .def_79))
(define-fun .def_75 () Bool (= |!{$(in_main#0)<array.1>}.next| |%{$(in_main#0)<array.1>}#1|))
(define-fun .def_73 () Bool (= |!{$(in_main#0)<x>}.next| |%{$(in_main#0)<x>}#1|))
(define-fun .def_71 () Bool (= |!{$(in_main#0)<l>}.next| |%{$(in_main#0)<l>}#1|))
(define-fun .def_69 () Bool (= |!{$(in_main#0)<k#2>}.next| |%{$(in_main#0)<k#2>}#1|))
(define-fun .def_67 () Bool (= |!{$(in_main#0)<k#1>}.next| |%{$(in_main#0)<k#1>}#1|))
(define-fun .def_65 () Bool (= |!{$(in_main#0)<k>}.next| 0))
(define-fun .def_63 () Bool (= |!{$(in_main#0)<j>}.next| |%{$(in_main#0)<j>}#1|))
(define-fun .def_62 () Bool (= |!{$(in_main#0)<N>}.next| |!{$(in_main#0)<$(in___VERIFIER_nondet_int#0)<h#<__VERIFIER_nondet_int.return>>>}|))
(define-fun .def_64 () Bool (and .def_62 .def_63))
(define-fun .def_66 () Bool (and .def_64 .def_65))
(define-fun .def_68 () Bool (and .def_66 .def_67))
(define-fun .def_70 () Bool (and .def_68 .def_69))
(define-fun .def_72 () Bool (and .def_70 .def_71))
(define-fun .def_74 () Bool (and .def_72 .def_73))
(define-fun .def_76 () Bool (and .def_74 .def_75))
(define-fun .def_57 () Bool (<= |!{$(in_main#0)<$(in___VERIFIER_nondet_int#0)<h#<__VERIFIER_nondet_int.return>>>}| 0))
(define-fun .def_58 () Bool (not .def_57))
(define-fun .def_59 () Int (ite .def_58 1 0))
(define-fun .def_60 () Bool (= .def_59 0))
(define-fun .def_61 () Bool (not .def_60))
(define-fun .def_77 () Bool (and .def_61 .def_76))
(define-fun .def_81 () Bool (and .def_77 .def_80))
(define-fun .def_126 () Bool (or .def_81 .def_125))
(define-fun .def_174 () Bool (or .def_126 .def_173))
(define-fun .def_212 () Bool (or .def_174 .def_211))
(define-fun .def_247 () Bool (or .def_212 .def_246))
(define-fun .def_276 () Bool (or .def_247 .def_275))
(define-fun .def_305 () Bool (! (or .def_276 .def_304) :trans true))
(define-fun .def_175 () Bool (= .def_39 141))
(define-fun .def_306 () Bool (! (not .def_175) :invar-property 0 :invar-property-name ||))
(assert true)
